
Starting CP-SAT solver v9.11.4210
Parameters: log_search_progress: true
Setting number of workers to 8

Initial optimization model '': (model_fingerprint: 0x1656a31df18b188a)
#Variables: 470 (#bools: 440 in objective)
  - 470 Booleans in [0,1]
#kLinear1: 6
#kLinear2: 277
#kLinear3: 398
#kLinearN: 68 (#enforced: 20) (#terms: 1'215)

Starting presolve at 0.00s
  2.88e-04s  0.00e+00d  [DetectDominanceRelations] 
  2.89e-03s  0.00e+00d  [PresolveToFixPoint] #num_loops=4 #num_dual_strengthening=2 
  2.23e-04s  0.00e+00d  [ExtractEncodingFromLinear] #potential_supersets=132 
[Symmetry] Graph for symmetry has 1'781 nodes and 3'760 arcs.
[Symmetry] Symmetry computation done. time: 0.000158 dtime: 0.00050959
[SAT presolve] num removable Booleans: 0 / 445
[SAT presolve] num trivial clauses: 0
[SAT presolve] [0s] clauses:861 literals:2140 vars:439 one_side_vars:13 simple_definition:48 singleton_clauses:0
[SAT presolve] [5.1e-05s] clauses:861 literals:2140 vars:439 one_side_vars:13 simple_definition:48 singleton_clauses:0
[SAT presolve] [7.7e-05s] clauses:861 literals:2140 vars:439 one_side_vars:13 simple_definition:48 singleton_clauses:0
  9.60e-05s  0.00e+00d  [DetectDuplicateConstraintsWithDifferentEnforcements] 
  6.24e-03s  3.57e-03d  [Probe] #probed=794 #fixed_bools=64 #new_binary_clauses=3'557 
  7.44e-04s  0.00e+00d  [MaxClique] Merged 694(1556 literals) into 694(1617 literals) at_most_ones. 
  6.30e-05s  0.00e+00d  [DetectDominanceRelations] 
  2.28e-04s  0.00e+00d  [PresolveToFixPoint] #num_loops=1 #num_dual_strengthening=1 
  1.00e-04s  0.00e+00d  [ProcessAtMostOneAndLinear] 
  7.40e-05s  0.00e+00d  [DetectDuplicateConstraints] 
  6.20e-05s  0.00e+00d  [DetectDuplicateConstraintsWithDifferentEnforcements] 
  1.00e-05s  7.86e-07d  [DetectDominatedLinearConstraints] #relevant_constraints=7 
  5.00e-06s  0.00e+00d  [DetectDifferentVariables] 
  1.21e-04s  6.12e-06d  [ProcessSetPPC] #relevant_constraints=589 #num_inclusions=21 
  1.77e-04s  0.00e+00d  [FindAlmostIdenticalLinearConstraints] 
  1.30e-04s  1.41e-04d  [FindBigAtMostOneAndLinearOverlap] 
  3.90e-05s  6.10e-05d  [FindBigVerticalLinearOverlap] 
  6.00e-06s  1.31e-06d  [FindBigHorizontalLinearOverlap] #linears=7 
  4.40e-05s  4.14e-06d  [MergeClauses] 
  6.10e-05s  0.00e+00d  [DetectDominanceRelations] 
  1.86e-04s  0.00e+00d  [PresolveToFixPoint] #num_loops=1 #num_dual_strengthening=1 
  5.70e-05s  0.00e+00d  [DetectDominanceRelations] 
  1.75e-04s  0.00e+00d  [PresolveToFixPoint] #num_loops=1 #num_dual_strengthening=1 
[Symmetry] Graph for symmetry has 1'481 nodes and 2'580 arcs.
[Symmetry] Symmetry computation done. time: 0.000137 dtime: 0.00034762
[SAT presolve] num removable Booleans: 0 / 381
[SAT presolve] num trivial clauses: 0
[SAT presolve] [0s] clauses:438 literals:1213 vars:375 one_side_vars:3 simple_definition:282 singleton_clauses:0
[SAT presolve] [2.2e-05s] clauses:438 literals:1213 vars:375 one_side_vars:3 simple_definition:282 singleton_clauses:0
[SAT presolve] [4.5e-05s] clauses:438 literals:1213 vars:375 one_side_vars:3 simple_definition:282 singleton_clauses:0
  7.60e-05s  0.00e+00d  [DetectDuplicateConstraintsWithDifferentEnforcements] 
  2.30e-03s  2.70e-03d  [Probe] #probed=731 #fixed_bools=17 #new_binary_clauses=2'624 
  5.34e-04s  0.00e+00d  [MaxClique] 
  6.60e-05s  0.00e+00d  [DetectDominanceRelations] 
  2.22e-04s  0.00e+00d  [PresolveToFixPoint] #num_loops=1 #num_dual_strengthening=1 
  8.60e-05s  0.00e+00d  [ProcessAtMostOneAndLinear] 
  7.20e-05s  0.00e+00d  [DetectDuplicateConstraints] #duplicates=4 
  5.90e-05s  0.00e+00d  [DetectDuplicateConstraintsWithDifferentEnforcements] 
  1.20e-05s  7.74e-07d  [DetectDominatedLinearConstraints] #relevant_constraints=7 
  6.00e-06s  0.00e+00d  [DetectDifferentVariables] 
  1.18e-04s  5.94e-06d  [ProcessSetPPC] #relevant_constraints=567 #num_inclusions=33 
  5.00e-06s  0.00e+00d  [FindAlmostIdenticalLinearConstraints] 
  1.17e-04s  1.42e-04d  [FindBigAtMostOneAndLinearOverlap] 
  3.80e-05s  5.90e-05d  [FindBigVerticalLinearOverlap] 
  7.00e-06s  1.29e-06d  [FindBigHorizontalLinearOverlap] #linears=7 
  4.80e-05s  3.89e-06d  [MergeClauses] 
  9.10e-05s  0.00e+00d  [DetectDominanceRelations] 
  2.15e-04s  0.00e+00d  [PresolveToFixPoint] #num_loops=1 #num_dual_strengthening=1 
  8.50e-05s  0.00e+00d  [DetectDominanceRelations] 
  2.04e-04s  0.00e+00d  [PresolveToFixPoint] #num_loops=1 #num_dual_strengthening=1 
[Symmetry] Graph for symmetry has 1'430 nodes and 2'470 arcs.
[Symmetry] Symmetry computation done. time: 0.000122 dtime: 0.00032979
[SAT presolve] num removable Booleans: 0 / 364
[SAT presolve] num trivial clauses: 0
[SAT presolve] [0s] clauses:433 literals:1186 vars:358 one_side_vars:3 simple_definition:248 singleton_clauses:0
[SAT presolve] [2.2e-05s] clauses:433 literals:1186 vars:358 one_side_vars:3 simple_definition:248 singleton_clauses:0
[SAT presolve] [4.2e-05s] clauses:433 literals:1186 vars:358 one_side_vars:3 simple_definition:248 singleton_clauses:0
  7.10e-05s  0.00e+00d  [DetectDuplicateConstraintsWithDifferentEnforcements] 
  2.09e-03s  2.40e-03d  [Probe] #probed=724 #fixed_bools=3 #new_binary_clauses=2'024 
  5.25e-04s  0.00e+00d  [MaxClique] 
  6.60e-05s  0.00e+00d  [DetectDominanceRelations] 
  2.08e-04s  0.00e+00d  [PresolveToFixPoint] #num_loops=1 #num_dual_strengthening=1 
  8.60e-05s  0.00e+00d  [ProcessAtMostOneAndLinear] 
  6.90e-05s  0.00e+00d  [DetectDuplicateConstraints] 
  5.70e-05s  0.00e+00d  [DetectDuplicateConstraintsWithDifferentEnforcements] 
  1.20e-05s  7.74e-07d  [DetectDominatedLinearConstraints] #relevant_constraints=7 
  7.00e-06s  0.00e+00d  [DetectDifferentVariables] 
  1.22e-04s  5.96e-06d  [ProcessSetPPC] #relevant_constraints=574 #num_inclusions=33 
  6.00e-06s  0.00e+00d  [FindAlmostIdenticalLinearConstraints] 
  1.17e-04s  1.42e-04d  [FindBigAtMostOneAndLinearOverlap] 
  3.80e-05s  5.89e-05d  [FindBigVerticalLinearOverlap] 
  8.00e-06s  1.29e-06d  [FindBigHorizontalLinearOverlap] #linears=7 
  5.00e-05s  3.84e-06d  [MergeClauses] 
  6.60e-05s  0.00e+00d  [DetectDominanceRelations] 
  1.94e-04s  0.00e+00d  [PresolveToFixPoint] #num_loops=1 #num_dual_strengthening=1 
  5.50e-05s  0.00e+00d  [ExpandObjective] 

Presolve summary:
  - 10 affine relations were detected.
  - rule 'TODO dual: only one blocking constraint?' was applied 51 times.
  - rule 'TODO dual: only one blocking enforced constraint?' was applied 6 times.
  - rule 'TODO linear2: contains a Boolean.' was applied 530 times.
  - rule 'affine: new relation' was applied 10 times.
  - rule 'at_most_one: empty or all false' was applied 54 times.
  - rule 'at_most_one: removed literals' was applied 405 times.
  - rule 'at_most_one: satisfied' was applied 26 times.
  - rule 'at_most_one: size one' was applied 298 times.
  - rule 'bool_and: fixed literals' was applied 4 times.
  - rule 'bool_and: non-reified.' was applied 3 times.
  - rule 'bool_or: always true' was applied 41 times.
  - rule 'bool_or: fixed literals' was applied 3 times.
  - rule 'bool_or: implications' was applied 301 times.
  - rule 'bool_or: only one literal' was applied 5 times.
  - rule 'deductions: 308 stored' was applied 1 time.
  - rule 'dual: add implication' was applied 8 times.
  - rule 'dual: fix variable' was applied 3 times.
  - rule 'duplicate: removed constraint' was applied 4 times.
  - rule 'enforcement: false literal' was applied 3 times.
  - rule 'enforcement: true literal' was applied 10 times.
  - rule 'linear: always true' was applied 12 times.
  - rule 'linear: empty' was applied 8 times.
  - rule 'linear: fixed or dup variables' was applied 57 times.
  - rule 'linear: infeasible' was applied 3 times.
  - rule 'linear: negative clause' was applied 133 times.
  - rule 'linear: negative reified and' was applied 7 times.
  - rule 'linear: positive at most one' was applied 132 times.
  - rule 'linear: positive clause' was applied 437 times.
  - rule 'linear: reduced variable domains' was applied 8 times.
  - rule 'linear: simplified rhs' was applied 726 times.
  - rule 'presolve: 108 unused variables removed.' was applied 1 time.
  - rule 'presolve: iteration' was applied 3 times.
  - rule 'probing: bool_or reduced to implication' was applied 38 times.
  - rule 'probing: simplified clauses.' was applied 6 times.

Presolved optimization model '': (model_fingerprint: 0x6d3a3004db766232)
#Variables: 355 (#bools: 355 in objective)
  - 355 Booleans in [0,1]
#kAtMostOne: 140 (#literals: 439)
#kBoolAnd: 196 (#enforced: 196) (#literals: 400)
#kBoolOr: 226 (#literals: 769)
#kLinearN: 7 (#terms: 258)

Preloading model.
#Bound   0.03s best:inf   next:[0,7430]   initial_domain
[Symmetry] Graph for symmetry has 1'306 nodes and 2'452 arcs.
[Symmetry] Symmetry computation done. time: 0.000126 dtime: 0.00031971
#Model   0.03s var:355/355 constraints:569/569

Starting search at 0.03s with 8 workers.
6 full problem subsolvers: [core, default_lp, max_lp, no_lp, quick_restart, reduced_costs]
2 first solution subsolvers: [fj, fs_random_no_lp]
9 interleaved subsolvers: [feasibility_pump, graph_arc_lns, graph_cst_lns, graph_dec_lns, graph_var_lns, ls, rins/rens, rnd_cst_lns, rnd_var_lns]
3 helper subsolvers: [neighborhood_helper, synchronization_agent, update_gap_integral]

#1       0.04s best:360   next:[0,359]    core (fixed_bools=0/355)
#Bound   0.04s best:360   next:[230,359]  quick_restart (initial_propagation)
#Model   0.04s var:320/355 constraints:521/569
#Bound   0.04s best:360   next:[249,359]  reduced_costs
#Bound   0.04s best:360   next:[261,359]  reduced_costs
#Bound   0.04s best:360   next:[271,359]  reduced_costs
#Model   0.04s var:315/355 constraints:515/569
#Bound   0.04s best:360   next:[286,359]  max_lp
#Bound   0.04s best:360   next:[301,359]  reduced_costs
#Bound   0.05s best:360   next:[306,359]  reduced_costs
#Bound   0.05s best:360   next:[310,359]  reduced_costs
#Model   0.05s var:258/355 constraints:423/569
#Bound   0.05s best:360   next:[318,359]  reduced_costs
#Bound   0.05s best:360   next:[320,359]  reduced_costs
#Model   0.05s var:256/355 constraints:421/569
#Model   0.05s var:255/355 constraints:418/569
#2       0.05s best:341   next:[320,340]  ls_restart_decay(batch:1 lin{mvs:180 evals:232} #w_updates:64 #perturb:0)
#Model   0.05s var:244/355 constraints:399/569
#3       0.05s best:320   next:[]         rnd_cst_lns (d=0.71 s=16 t=0.10 p=1.00 stall=1 h=auto_l0) [hint]
#Model   0.05s var:243/355 constraints:398/569

Task timing                   n [     min,      max]      avg      dev     time         n [     min,      max]      avg      dev    dtime
              'core':         1 [ 22.14ms,  22.14ms]  22.14ms   0.00ns  22.14ms         1 [ 18.83ms,  18.83ms]  18.83ms   0.00ns  18.83ms
        'default_lp':         1 [ 22.17ms,  22.17ms]  22.17ms   0.00ns  22.17ms         1 [  8.19ms,   8.19ms]   8.19ms   0.00ns   8.19ms
  'feasibility_pump':         1 [  4.33ms,   4.33ms]   4.33ms   0.00ns   4.33ms         0 [  0.00ns,   0.00ns]   0.00ns   0.00ns   0.00ns
                'fj':         0 [  0.00ns,   0.00ns]   0.00ns   0.00ns   0.00ns         0 [  0.00ns,   0.00ns]   0.00ns   0.00ns   0.00ns
   'fs_random_no_lp':         1 [  4.53ms,   4.53ms]   4.53ms   0.00ns   4.53ms         0 [  0.00ns,   0.00ns]   0.00ns   0.00ns   0.00ns
     'graph_arc_lns':         1 [  6.76ms,   6.76ms]   6.76ms   0.00ns   6.76ms         1 [ 75.36us,  75.36us]  75.36us   0.00ns  75.36us
     'graph_cst_lns':         1 [618.00us, 618.00us] 618.00us   0.00ns 618.00us         0 [  0.00ns,   0.00ns]   0.00ns   0.00ns   0.00ns
     'graph_dec_lns':         1 [  1.01ms,   1.01ms]   1.01ms   0.00ns   1.01ms         0 [  0.00ns,   0.00ns]   0.00ns   0.00ns   0.00ns
     'graph_var_lns':         2 [  2.44ms,   7.51ms]   4.97ms   2.53ms   9.95ms         1 [ 76.88us,  76.88us]  76.88us   0.00ns  76.88us
                'ls':         1 [  1.49ms,   1.49ms]   1.49ms   0.00ns   1.49ms         1 [  1.60ms,   1.60ms]   1.60ms   0.00ns   1.60ms
            'max_lp':         1 [ 22.28ms,  22.28ms]  22.28ms   0.00ns  22.28ms         0 [  0.00ns,   0.00ns]   0.00ns   0.00ns   0.00ns
             'no_lp':         1 [ 22.13ms,  22.13ms]  22.13ms   0.00ns  22.13ms         1 [ 14.54ms,  14.54ms]  14.54ms   0.00ns  14.54ms
     'quick_restart':         1 [ 22.09ms,  22.09ms]  22.09ms   0.00ns  22.09ms         1 [ 12.02ms,  12.02ms]  12.02ms   0.00ns  12.02ms
     'reduced_costs':         1 [ 21.81ms,  21.81ms]  21.81ms   0.00ns  21.81ms         1 [  2.50ms,   2.50ms]   2.50ms   0.00ns   2.50ms
         'rins/rens':         0 [  0.00ns,   0.00ns]   0.00ns   0.00ns   0.00ns         0 [  0.00ns,   0.00ns]   0.00ns   0.00ns   0.00ns
       'rnd_cst_lns':         2 [  1.97ms,   4.93ms]   3.45ms   1.48ms   6.90ms         2 [ 23.03us,  26.66us]  24.84us   1.82us  49.69us
       'rnd_var_lns':         2 [  1.20ms,   2.69ms]   1.95ms 746.00us   3.89ms         1 [  2.23us,   2.23us]   2.23us   0.00ns   2.23us

Search stats          Bools  Conflicts  Branches  Restarts  BoolPropag  IntegerPropag
             'core':    392        328     9'343     1'835     129'377        124'148
       'default_lp':    355        130     3'211     1'375      49'449         64'772
  'fs_random_no_lp':    355          0       710       710      18'364         19'075
           'max_lp':    355          0       710       710      18'364         19'076
            'no_lp':    355        250     4'933     1'613      80'720        106'157
    'quick_restart':    355        112     4'418     1'537      72'740         97'702
    'reduced_costs':    355         11     1'361       884      23'129         28'267

SAT stats             ClassicMinim  LitRemoved  LitLearned  LitForgotten  Subsumed  MClauses  MDecisions  MLitTrue  MSubsumed  MLitRemoved  MReused
             'core':           232       1'186       4'409             0        10       480       3'301         0         54          833      160
       'default_lp':            76         595       2'458             0        19       275       1'701         2         44          447        4
  'fs_random_no_lp':             0           0           0             0         0         0           0         0          0            0        0
           'max_lp':             0           0           0             0         0         0           0         0          0            0        0
            'no_lp':           151       1'445       5'709             0        36       441       3'150         0         75          861      110
    'quick_restart':            77         646       1'305             0        17       412       3'066         0         64          913      109
    'reduced_costs':             2          14          68             0         1        19         113         0          2           40        2

Lp stats            Component  Iterations  AddedCuts  OPTIMAL  DUAL_F.  DUAL_U.
     'default_lp':          1         103          0       52        0        0
         'max_lp':          1          85         45        1        0        0
  'quick_restart':          1          69          0       29        0        0
  'reduced_costs':          1         103         74       18        0        0

Lp dimension                                                        Final dimension of first component
     'default_lp':    15 rows, 340 columns, 280 entries with magnitude in [1.000000e+00, 1.000000e+00]
         'max_lp':  579 rows, 355 columns, 2062 entries with magnitude in [8.058230e-02, 1.000000e+00]
  'quick_restart':    19 rows, 340 columns, 276 entries with magnitude in [1.000000e+00, 1.000000e+00]
  'reduced_costs':   139 rows, 355 columns, 850 entries with magnitude in [3.290185e-01, 1.000000e+00]

Lp debug            CutPropag  CutEqPropag  Adjust  Overflow  Bad  BadScaling
     'default_lp':          0            0      42         0    0           0
         'max_lp':          0            0       1         0  314           0
  'quick_restart':          0            0      18         0    0           0
  'reduced_costs':          0            0      17         0  224           0

Lp pool             Constraints  Updates  Simplif  Merged  Shortened  Split  Strenghtened  Cuts/Call
     'default_lp':          147        7       43       0         43      0             0        0/0
         'max_lp':          622        6        0       0          0      0             3      45/89
  'quick_restart':          147        7       51       0         51      0             0        0/0
  'reduced_costs':          651       19      604       0        384      0             5     74/108

Lp Cut           max_lp  reduced_costs
         CG_FF:      18              1
          CG_R:      20              -
        Clique:       -             57
     MIR_1_RLT:       -             13
      MIR_4_FF:       1              -
      MIR_6_FF:       -              1
  ZERO_HALF_FF:       3              2
   ZERO_HALF_R:       3              -

LNS stats           Improv/Calls  Closed  Difficulty  TimeLimit
  'graph_arc_lns':           0/1    100%        0.71       0.10
  'graph_cst_lns':           1/1    100%        0.71       0.10
  'graph_dec_lns':           1/1    100%        0.71       0.10
  'graph_var_lns':           0/1    100%        0.71       0.10
      'rins/rens':           0/0      0%        0.50       0.10
    'rnd_cst_lns':           1/2    100%        0.81       0.10
    'rnd_var_lns':           1/2    100%        0.81       0.10

LS stats               Batches  Restarts/Perturbs  LinMoves  GenMoves  CompoundMoves  Bactracks  WeightUpdates  ScoreComputed
  'ls_restart_decay':        1                  1       180         0              0          0             64            232

Solutions (3)          Num   Rank
              'core':    1  [1,1]
  'ls_restart_decay':    1  [2,2]
       'rnd_cst_lns':    1  [3,3]

Objective bounds     Num
  'initial_domain':    1
          'max_lp':    1
   'quick_restart':    1
   'reduced_costs':    8

Solution repositories    Added  Queried  Synchro
  'feasible solutions':      3       19        3
        'lp solutions':      0        0        0
                'pump':      0        0

Improving bounds shared    Num
            'default_lp':   59
                 'no_lp':   38
         'quick_restart':    3
         'reduced_costs':   12

Clauses shared      Num
           'core':   48
     'default_lp':  487
          'no_lp':  128
  'quick_restart':   40
  'reduced_costs':   22

CpSolverResponse summary:
status: OPTIMAL
objective: 320
best_bound: 320
integers: 375
booleans: 355
conflicts: 0
branches: 710
propagations: 18364
integer_propagations: 19075
restarts: 710
lp_iterations: 0
walltime: 0.056672
usertime: 0.056672
deterministic_time: 0.0671995
gap_integral: 0.00676804
solution_fingerprint: 0xde8e22e60c3792aa

